*SENSE:Minimize
NAME          LP_Problem
ROWS
 N  Objective
 E  Constraint_1
 E  Constraint_2
 E  Constraint_3
COLUMNS
    x1        Constraint_1   1.000000000000e+01
    x1        Constraint_2   1.000000000000e+01
    x1        Constraint_3   1.400000000000e+01
    x1        Objective  -3.000000000000e+00
    x2        Constraint_1   1.100000000000e+01
    x2        Constraint_2   7.000000000000e+00
    x2        Constraint_3   1.700000000000e+01
    x2        Objective  -4.000000000000e+00
    x3        Constraint_1   4.000000000000e+00
    x3        Constraint_2   1.800000000000e+01
    x3        Constraint_3   1.400000000000e+01
    x3        Objective  -1.900000000000e+01
    x4        Constraint_1   1.600000000000e+01
    x4        Constraint_2   1.600000000000e+01
    x4        Constraint_3   1.000000000000e+01
    x4        Objective  -9.000000000000e+00
    x5        Constraint_1   1.200000000000e+01
    x5        Constraint_2   1.500000000000e+01
    x5        Constraint_3   6.000000000000e+00
    x5        Objective  -3.000000000000e+00
    x6        Constraint_1   1.000000000000e+00
    x7        Constraint_2   1.000000000000e+00
    x8        Constraint_3   1.000000000000e+00
RHS
    RHS       Constraint_1   2.000000000000e+01
    RHS       Constraint_2   2.200000000000e+01
    RHS       Constraint_3   3.000000000000e+01
BOUNDS
ENDATA
